%chk=D:\Wu Group Data\Gaussian\Benzene amine.chk
# hf/3-21g geom=connectivity

Title Card Required

0 1
 C                 -2.53392614    1.93974739   -0.37090934
 C                 -1.16163856    1.96494946   -0.08786583
 C                 -0.54441761    3.16755660    0.28185882
 C                 -1.29948426    4.34496167    0.36854004
 C                 -2.67177175    4.31975968    0.08549614
 C                 -3.28899282    3.11715242   -0.28422791
 H                 -3.00518807    1.02153011   -0.65320211
 H                  0.50335478    3.18679932    0.49796694
 H                 -0.82822215    5.26317913    0.65083194
 H                 -3.24828143    5.21873505    0.15167688
 H                 -4.33676477    3.09791015   -0.50033825
 C                  0.16417827    0.58930903   -1.54121478
 H                  0.74068839   -0.30966588   -1.60739774
 H                 -0.64588614    0.54570301   -2.23892114
 H                  0.78627277    1.42954838   -1.76902232
 N                 -0.36961063    0.72990916   -0.17879009
 H                  0.38745890    0.77066245    0.47327193

 1 2 1.5 6 1.5 7 1.0
 2 3 1.5 16 1.0
 3 4 1.5 8 1.0
 4 5 1.5 9 1.0
 5 6 1.5 10 1.0
 6 11 1.0
 7
 8
 9
 10
 11
 12 13 1.0 14 1.0 15 1.0 16 1.0
 13
 14
 15
 16 17 1.0
 17

